0 46 29 30 26 87 27 28 5 80 52 51 54 2 53 66 4 97 34 33 32 31 24 84 83 82 8 81 9 99 10 11 12 7 62 63 65 23 64 89 93 90 94 96 92 95 91 3 13 14 15 16 17 77 78 76 75 41 38 40 39 35 36 37 70 73 69 72 68 71 47 48 67 74 1 49 50 6 18 85 25 98 88 42 79 43 44 45 21 20 19 22 61 55 56 57 58 59 60 86 0 